(set-info :smt-lib-version 2.6)
(set-logic QF_UFLRA)
(set-info :source |
MathSat group

|)
(set-info :category "random")
(set-info :status unsat)
(declare-fun x0 () Real)
(declare-fun x1 () Real)
(declare-fun x2 () Real)
(declare-fun x3 () Real)
(declare-fun x4 () Real)
(declare-fun x5 () Real)
(declare-fun x6 () Real)
(declare-fun x7 () Real)
(declare-fun x8 () Real)
(declare-fun x9 () Real)
(declare-fun x10 () Real)
(declare-fun x11 () Real)
(declare-fun x12 () Real)
(declare-fun x13 () Real)
(declare-fun x14 () Real)
(declare-fun x15 () Real)
(declare-fun x16 () Real)
(declare-fun x17 () Real)
(declare-fun x18 () Real)
(declare-fun x19 () Real)
(declare-fun x20 () Real)
(declare-fun x21 () Real)
(declare-fun x22 () Real)
(declare-fun x23 () Real)
(declare-fun x24 () Real)
(declare-fun x25 () Real)
(declare-fun x26 () Real)
(declare-fun x27 () Real)
(declare-fun x28 () Real)
(declare-fun x29 () Real)
(declare-fun f0_1 (Real) Real)
(declare-fun f0_2 (Real Real) Real)
(declare-fun f0_3 (Real Real Real) Real)
(declare-fun f0_4 (Real Real Real Real) Real)
(declare-fun P0 () Bool)
(declare-fun P1 () Bool)
(declare-fun P2 () Bool)
(declare-fun P3 () Bool)
(declare-fun P4 () Bool)
(declare-fun P5 () Bool)
(declare-fun P6 () Bool)
(declare-fun P7 () Bool)
(declare-fun P8 () Bool)
(declare-fun P9 () Bool)
(declare-fun P10 () Bool)
(declare-fun P11 () Bool)
(declare-fun P12 () Bool)
(declare-fun P13 () Bool)
(declare-fun P14 () Bool)
(declare-fun P15 () Bool)
(declare-fun P16 () Bool)
(declare-fun P17 () Bool)
(declare-fun P18 () Bool)
(declare-fun P19 () Bool)
(declare-fun P20 () Bool)
(declare-fun P21 () Bool)
(declare-fun P22 () Bool)
(declare-fun P23 () Bool)
(declare-fun P24 () Bool)
(declare-fun P25 () Bool)
(declare-fun P26 () Bool)
(declare-fun P27 () Bool)
(declare-fun P28 () Bool)
(declare-fun P29 () Bool)
(assert (let ((?v_20 (* 14 x4)) (?v_16 (* 14 x6)) (?v_125 (< (+ (- (* 4 x9) (* 2 x13)) (* 29 x14)) 8))) (let ((?v_48 (< (- (- (* 2 x22) ?v_16) (* 31 x2)) 1)) (?v_44 (f0_1 x13)) (?v_19 (f0_1 x21))) (let ((?v_18 (distinct ?v_44 ?v_19)) (?v_80 (f0_1 x20))) (let ((?v_95 (distinct ?v_80 x22)) (?v_92 (= x14 (f0_2 x26 x14))) (?v_0 (f0_1 x10))) (let ((?v_17 (distinct (f0_1 x24) ?v_0)) (?v_138 (distinct (f0_2 x22 x1) (f0_1 x9))) (?v_27 (= x20 (f0_2 x18 x27))) (?v_22 (= x5 (f0_2 x0 x26))) (?v_87 (= (f0_2 x28 x26) (f0_1 x22))) (?v_47 (distinct (f0_1 x7) x24)) (?v_56 (= x2 (f0_2 x22 x4))) (?v_72 (= (f0_1 x5) (f0_2 x3 x27))) (?v_49 (distinct (f0_2 x12 x4) (f0_2 x27 x27))) (?v_139 (= (f0_2 x22 x16) x16)) (?v_3 (f0_1 x11))) (let ((?v_12 (distinct ?v_3 (f0_2 x25 x1))) (?v_88 (distinct x11 (f0_2 x11 x6))) (?v_60 (distinct (f0_2 x9 x25) ?v_19)) (?v_123 (distinct ?v_44 (f0_1 x25))) (?v_82 (distinct (f0_1 x29) ?v_44)) (?v_41 (distinct (f0_2 x23 x4) (f0_2 x24 x1))) (?v_35 (distinct (f0_2 x28 x1) (f0_1 x12))) (?v_50 (= x28 ?v_80)) (?v_105 (distinct (f0_1 x0) (f0_2 x18 x5))) (?v_79 (= x21 x20)) (?v_71 (= x9 ?v_3)) (?v_23 (distinct (f0_1 x17) (f0_1 x14))) (?v_25 (distinct (f0_2 x3 x8) x0)) (?v_38 (distinct (f0_2 x29 x26) (f0_1 x23))) (?v_94 (distinct x4 (f0_2 x27 x12))) (?v_134 (distinct (f0_1 x18) ?v_0)) (?v_78 (distinct x17 (f0_2 x27 x18)))) (let ((?v_15 (not ?v_134)) (?v_14 (not ?v_47)) (?v_67 (not P24)) (?v_83 (not P12)) (?v_6 (not ?v_27)) (?v_111 (not P2)) (?v_4 (not ?v_17)) (?v_53 (not P18)) (?v_21 (not ?v_71)) (?v_8 (not P23)) (?v_13 (not P26)) (?v_55 (not P5)) (?v_40 (not P22)) (?v_104 (not ?v_92)) (?v_64 (not P3)) (?v_29 (not P25)) (?v_45 (not ?v_125)) (?v_52 (not ?v_56)) (?v_66 (not P27)) (?v_58 (not P15)) (?v_68 (not ?v_23)) (?v_108 (not P9)) (?v_24 (not P13)) (?v_137 (not ?v_38)) (?v_120 (not ?v_60)) (?v_148 (not P21)) (?v_62 (not P17)) (?v_103 (not ?v_22)) (?v_36 (not ?v_49)) (?v_51 (not ?v_88)) (?v_129 (or ?v_41 P25)) (?v_61 (not ?v_18)) (?v_133 (not P28)) (?v_73 (not P11)) (?v_115 (not ?v_82)) (?v_140 (not P19)) (?v_143 (not ?v_50)) (?v_59 (not P16)) (?v_116 (not P20)) (?v_136 (not P1)) (?v_110 (not ?v_105)) (?v_106 (not P7)) (?v_91 (not ?v_79)) (?v_75 (not ?v_87)) (?v_113 (not ?v_48)) (?v_86 (not P6)) (?v_77 (not ?v_25)) (?v_101 (not ?v_78)) (?v_109 (not P10)) (?v_100 (not ?v_139)) (?v_154 (not ?v_95)) (?v_128 (not P4)) (?v_118 (not ?v_123)) (?v_156 (not ?v_35)) (?v_147 (not P14)) (?v_145 (not ?v_72)) (?v_132 (not ?v_12)) (?v_155 (not ?v_41)) (?v_149 (not ?v_138)) (?v_142 (not ?v_94)) (?v_150 (not P8)) (?v_84 (<= (- (* 7 x15) (* 11 x4)) 22))) (let ((?v_74 (not ?v_84)) (?v_33 (< (- (* 6 x6) (* 34 x17)) 0))) (let ((?v_39 (not ?v_33)) (?v_107 (= (+ (* 36 x22) (* 19 x13) (* 21 x10)) 28))) (let ((?v_135 (not ?v_107)) (?v_144 (or ?v_145 ?v_107)) (?v_1 (< (- (- (* (- 16) x10) (* 9 x22)) (* 13 x15)) (- 18)))) (let ((?v_43 (not ?v_1)) (?v_2 (<= (+ (* 12 x1) (* 7 x23) (* 10 x16)) (- 18)))) (let ((?v_99 (not ?v_2)) (?v_54 (<= (- (- (* (- 13) x11) (* 8 x19)) x26) (- 12))) (?v_31 (< (+ (- (* 29 x4) (* 24 x15)) ?v_16) (- 35))) (?v_10 (<= (- (- (* (- 10) x11) 0) (* 2 x1)) 29))) (let ((?v_5 (not ?v_10)) (?v_112 (<= (- (* 30 x11) (* 40 x7)) (- 34)))) (let ((?v_7 (not ?v_112)) (?v_11 (<= (- (+ (* (- 15) x27) (* 16 x24)) (* 42 x13)) (- 21))) (?v_93 (< (+ (- (* (- 20) x18) (* 13 x21)) (* 16 x1)) (- 4)))) (let ((?v_42 (not ?v_93)) (?v_46 (= (- (- (* (- 2) x23) (* 41 x16)) (* 6 x4)) 32)) (?v_9 (< (- (+ (* 31 x26) (* 36 x6)) (* 4 x2)) (- 12))) (?v_121 (< (+ (* (- 39) x4) (* 7 x29) (* 22 x22)) 44))) (let ((?v_26 (not ?v_121)) (?v_32 (<= (- (- (* 15 x15) (* 32 x29)) (* 16 x5)) (- 41))) (?v_85 (<= (+ (- (* (- 27) x11) (* 39 x2)) (* 32 x15)) 8))) (let ((?v_102 (not ?v_85)) (?v_65 (not ?v_11)) (?v_57 (< (+ (* (- 40) x3) (* 3 x17)) (- 23)))) (let ((?v_76 (not ?v_57)) (?v_34 (distinct (+ (* (- 34) x26) x10 (* 26 x19)) 17))) (let ((?v_30 (not ?v_34)) (?v_97 (not ?v_9)) (?v_81 (distinct (+ (- (* (- 1) x29) (* 41 x13)) ?v_20) (- 41)))) (let ((?v_28 (not ?v_81)) (?v_63 (distinct (- (- (* (- 16) x1) (* 8 x22)) ?v_20) (- 21))) (?v_37 (not ?v_32)) (?v_89 (<= (- (+ (* (- 9) x0) (* 19 x23)) (* 36 x29)) (- 4)))) (let ((?v_124 (not ?v_89)) (?v_122 (not ?v_31)) (?v_157 (< (- (+ (* 9 x28) (* 9 x26)) (* 34 x21)) (- 20)))) (let ((?v_96 (not ?v_157)) (?v_69 (not ?v_46)) (?v_126 (< (+ (- (* (- 42) x16) (* 21 x25)) (* 39 x18)) (- 13)))) (let ((?v_141 (not ?v_126)) (?v_117 (distinct (- (* 4 x27) 0) (- 12)))) (let ((?v_70 (not ?v_117)) (?v_114 (not ?v_54)) (?v_98 (< (+ (- (* 20 x1) (* 29 x25)) (* 38 x13)) (- 23)))) (let ((?v_130 (not ?v_98)) (?v_90 (< (+ (- (* (- 37) x1) (* 10 x1)) (* 35 x25)) (- 12)))) (let ((?v_127 (not ?v_90)) (?v_131 (distinct (+ (- (* (- 10) x1) (* 17 x16)) (* 8 x7)) 41)) (?v_119 (<= (- (- (* 40 x18) (* 5 x14)) (* 33 x28)) (- 15))) (?v_146 (or ?v_4 ?v_117))) (let ((?v_158 (not ?v_119)) (?v_153 (not ?v_131)) (?v_152 (or ?v_28 P3)) (?v_151 (not ?v_63))) (and (and (and (and (and (and (and (and (and (and (and (and (and (and (and (and (and (and (and (and (and (and (and (and (and (and (and (and (and (and (and (and (and (and (and (and (and (and (and (and (and (and (and (and (and (and (and (and (and (and (and (and (and (and (and (and (and (and (and (and (and (and (and (and (and (and (and (and (and (and (and (and (and (and (and (and (and (and (and (and (and (and (and (and (and (and (and (and (and (and (and (and (and (and (and (and (and (and (and (and (and (and (and (and (and (and (and (and (and (and (and (and (and (and (and (and (and (and (and (and (and (and (and (and (and (and (and (and (and (and (and (and (and (and (and (and (and (and (and (and (and (and (and (and (and (and (and (and (and (and (and (and (and (and (and (and (and (and (and (and (and (and (and (and (and (and (and (and (and (and (and (and (and (and (and (and (and (and (and (and (and (and (and (and (and (and (and (and (and (and (and (and (and (and (and (and (and (and (and (and (and (and (and (and (and (and (and (and (and (and (and (and (and (and (and (and (and (and (and (and (and (and (and (and (and (and (and (and (and (and (and (and (and (and (and (and (and (and (and (and (and (and (and (and (and (and (and (and (and (and (and (and (and (and (and (and (and (and (and (and (and (and (and (and (and (and (and (and (and (and (and (and (and (and (and (and (and (and (and (and (and (and (and (and (and (and (and (and (and (and (and (and (and (and (and (and (and (and (and (and (and (and (and (and (and (and (and (and (and (and (and (and (and (and (and (and (and (and (and (and (and (and (and (and (and (and (and (and (and (and (and (and (and (and (and (and (and (and (and (and (and (and (and (and (and (and (and (and (and (and (and (and (and (and (and (and (and (and (and (and (and (and (and (and (and (and (and (and (and (and (and (and (and (and (and (and (and (and (and (and (and (and (and (and (and (and (and (and (and (and (and (and (and (and (and (and (and (and (and (and (and (and (and (and (and (and (and (and (and (and (and (and (and (and (and (and (and (and (and (and (and (and (and (and (and (and (and (and (and (and (and (and (and (and (and (and (and (and (and (and (and (and (and (and (and (and (and (and (and (or (or P19 ?v_43) ?v_25) (or (or P22 ?v_15) ?v_14)) (or (or ?v_99 ?v_67) ?v_54)) (or (or P17 ?v_12) ?v_83)) (or (or ?v_6 ?v_111) ?v_4)) (or (or ?v_31 ?v_138) ?v_53)) (or (or ?v_1 P16) P28)) (or (or ?v_2 ?v_21) P19)) (or (or P11 ?v_5) ?v_8)) (or (or P4 ?v_4) ?v_13)) (or (or P8 ?v_7) ?v_55)) (or (or ?v_40 ?v_104) ?v_11)) (or (or ?v_42 ?v_5) ?v_46)) (or (or ?v_64 ?v_6) ?v_7)) (or (or ?v_9 ?v_29) ?v_8)) (or (or ?v_9 ?v_26) ?v_32)) (or (or ?v_22 ?v_10) P3)) (or (or ?v_4 ?v_45) P20)) (or (or ?v_102 ?v_65) P27)) (or (or ?v_12 ?v_13) ?v_5)) (or (or ?v_52 ?v_14) ?v_15)) (or (or P3 ?v_4) ?v_76)) (or (or ?v_74 ?v_48) P19)) (or (or ?v_30 ?v_10) ?v_33)) (or (or P2 P9) P15)) (or (or ?v_18 P12) ?v_66)) (or (or ?v_2 ?v_50) P9)) (or (or ?v_58 ?v_17) ?v_68)) (or (or P8 P17) ?v_108)) (or (or ?v_97 ?v_18) ?v_24)) (or (or ?v_137 P6) P9)) (or (or ?v_120 ?v_28) ?v_1)) (or (or ?v_63 P22) ?v_8)) (or (or ?v_21 ?v_5) ?v_148)) (or (or ?v_62 ?v_14) ?v_7)) (or (or ?v_22 ?v_35) ?v_10)) (or (or ?v_103 ?v_17) ?v_23)) (or (or ?v_24 ?v_11) ?v_25)) (or (or ?v_26 ?v_27) ?v_36)) (or (or ?v_28 ?v_51) ?v_12)) (or (or ?v_29 ?v_1) ?v_41)) (or (or ?v_30 P13) ?v_31)) (or (or ?v_37 ?v_39) ?v_34)) (or (or ?v_124 ?v_35) ?v_9)) (or (or ?v_122 ?v_36) ?v_13)) (or (or ?v_37 ?v_17) ?v_96)) (or (or ?v_38 ?v_39) ?v_40)) (or ?v_129 ?v_61)) (or (or ?v_133 ?v_73) ?v_42)) (or (or P28 ?v_43) ?v_15)) (or (or ?v_115 P28) ?v_38)) (or (or ?v_45 ?v_11) ?v_69)) (or (or ?v_141 ?v_38) ?v_47)) (or (or P18 ?v_48) ?v_49)) (or (or ?v_140 ?v_14) ?v_1)) (or (or P24 ?v_143) ?v_29)) (or (or ?v_51 ?v_52) ?v_53)) (or (or ?v_59 ?v_70) ?v_114)) (or (or ?v_55 ?v_34) ?v_33)) (or (or ?v_116 ?v_78) ?v_136)) (or (or ?v_8 ?v_110) ?v_130)) (or (or ?v_18 P6) ?v_56)) (or (or P0 ?v_27) ?v_40)) (or (or ?v_57 ?v_58) P6)) (or (or ?v_59 ?v_60) ?v_61)) (or (or ?v_62 P8) ?v_50)) (or (or ?v_36 P27) P9)) (or (or ?v_63 ?v_64) ?v_65)) (or (or ?v_66 P17) P0)) (or (or ?v_106 ?v_67) ?v_72)) (or (or ?v_30 ?v_68) ?v_12)) (or (or ?v_91 ?v_56) ?v_94)) (or (or ?v_50 ?v_30) ?v_69)) (or (or ?v_11 P10) P27)) (or (or ?v_47 ?v_30) ?v_70)) (or (or ?v_71 ?v_55) ?v_72)) (or (or ?v_70 ?v_73) P24)) (or (or ?v_75 ?v_74) ?v_22)) (or (or ?v_113 ?v_75) ?v_86)) (or (or ?v_54 ?v_56) ?v_77)) (or (or P11 ?v_73) ?v_107)) (or (or ?v_8 ?v_76) P17)) (or (or ?v_25 P5) P2)) (or (or ?v_11 ?v_60) ?v_7)) (or (or ?v_55 ?v_77) ?v_67)) (or (or ?v_101 ?v_4) ?v_13)) (or (or ?v_79 ?v_95) ?v_127)) (or (or ?v_67 ?v_81) ?v_6)) (or (or ?v_64 ?v_82) ?v_109)) (or (or ?v_83 ?v_46) ?v_84)) (or (or ?v_23 ?v_5) P4)) (or (or ?v_57 ?v_85) ?v_86)) (or (or ?v_70 ?v_87) ?v_88)) (or (or ?v_30 ?v_87) ?v_73)) (or (or ?v_89 ?v_90) ?v_61)) (or (or ?v_91 ?v_92) ?v_90)) (or (or ?v_93 ?v_71) ?v_58)) (or (or ?v_5 ?v_84) ?v_28)) (or (or ?v_58 ?v_89) ?v_74)) (or (or ?v_88 ?v_41) ?v_100)) (or (or ?v_78 P16) ?v_55)) (or (or P28 ?v_94) ?v_24)) (or (or ?v_15 ?v_154) ?v_24)) (or (or ?v_5 ?v_96) ?v_97)) (or (or ?v_2 ?v_35) P12)) (or (or P22 ?v_98) ?v_128)) (or (or ?v_32 ?v_28) ?v_99)) (or (or ?v_91 ?v_131) ?v_31)) (or (or ?v_25 ?v_100) P18)) (or (or ?v_22 ?v_58) ?v_14)) (or (or ?v_98 ?v_32) ?v_119)) (or (or P6 P29) ?v_59)) (or (or ?v_77 ?v_49) ?v_18)) (or (or ?v_48 P8) ?v_78)) (or (or ?v_83 ?v_101) ?v_63)) (or (or ?v_102 ?v_101) ?v_47)) (or (or ?v_89 ?v_103) ?v_66)) (or (or ?v_68 ?v_95) ?v_9)) (or (or ?v_100 ?v_40) ?v_56)) (or (or ?v_26 ?v_104) ?v_66)) (or (or ?v_76 ?v_47) ?v_45)) (or (or ?v_10 ?v_45) ?v_49)) (or (or ?v_63 ?v_118) ?v_91)) (or (or ?v_43 ?v_90) ?v_105)) (or (or ?v_106 ?v_77) (not P0))) (or (or P3 ?v_69) ?v_135)) (or (or ?v_26 ?v_72) ?v_31)) (or (or ?v_27 ?v_84) ?v_40)) (or (or ?v_66 ?v_108) ?v_109)) (or (or ?v_110 ?v_10) ?v_52)) (or (or ?v_71 ?v_95) P19)) (or (or ?v_70 ?v_84) ?v_2)) (or (or ?v_101 ?v_105) ?v_38)) (or (or ?v_85 P1) P7)) (or (or ?v_111 ?v_21) ?v_112)) (or (or ?v_113 ?v_8) ?v_92)) (or (or ?v_15 ?v_72) P8)) (or (or ?v_114 P11) ?v_102)) (or (or ?v_115 ?v_37) ?v_38)) (or (or ?v_105 ?v_68) ?v_15)) (or (or ?v_31 ?v_24) ?v_116)) (or ?v_146 P27)) (or (or P16 ?v_110) ?v_71)) (or (or ?v_111 ?v_118) ?v_5)) (or (or ?v_31 P18) ?v_89)) (or (or P28 ?v_158) ?v_111)) (or (or P15 ?v_85) ?v_117)) (or (or P5 ?v_156) ?v_120)) (or (or ?v_18 ?v_121) P6)) (or (or P5 ?v_6) ?v_102)) (or (or ?v_84 ?v_111) P17)) (or (or P18 ?v_15) ?v_31)) (or (or ?v_118 P24) ?v_87)) (or (or P21 ?v_9) P2)) (or (or ?v_51 ?v_39) ?v_43)) (or (or P15 P25) ?v_116)) (or (or ?v_77 ?v_147) P26)) (or (or ?v_120 ?v_93) ?v_69)) (or (or ?v_5 ?v_122) P2)) (or (or ?v_86 P4) ?v_36)) (or ?v_144 ?v_123)) (or (or ?v_96 ?v_93) ?v_67)) (or (or ?v_50 ?v_25) ?v_84)) (or (or ?v_57 ?v_15) ?v_93)) (or (or ?v_123 ?v_73) ?v_101)) (or (or ?v_124 ?v_103) ?v_125)) (or (or ?v_125 ?v_119) ?v_11)) (or (or ?v_126 ?v_45) ?v_4)) (or (or ?v_120 ?v_132) P1)) (or (or ?v_54 ?v_63) ?v_61)) (or (or ?v_127 ?v_6) ?v_28)) (or (or ?v_88 ?v_125) ?v_15)) (or (or P11 ?v_88) ?v_57)) (or (or ?v_105 ?v_116) ?v_15)) (or (or P0 ?v_5) P12)) (or (or ?v_128 ?v_51) ?v_28)) (or ?v_129 ?v_59)) (or (or ?v_95 ?v_15) ?v_11)) (or (or ?v_50 P16) ?v_27)) (or (or ?v_43 ?v_47) P7)) (or (or ?v_100 ?v_126) ?v_17)) (or (or ?v_96 ?v_17) ?v_9)) (or (or ?v_25 ?v_128) ?v_119)) (or (or ?v_128 ?v_43) ?v_130)) (or (or P25 ?v_90) ?v_70)) (or (or ?v_26 ?v_55) P20)) (or (or ?v_87 ?v_93) ?v_78)) (or (or ?v_93 ?v_91) P12)) (or (or P22 ?v_122) ?v_105)) (or (or P8 P27) ?v_83)) (or (or P24 ?v_42) ?v_49)) (or (or ?v_6 ?v_10) P17)) (or (or ?v_27 ?v_127) ?v_153)) (or (or ?v_132 ?v_6) ?v_72)) (or (or ?v_41 ?v_87) P27)) (or (or ?v_96 ?v_96) ?v_18)) (or (or ?v_112 ?v_100) ?v_73)) (or (or ?v_98 ?v_128) ?v_133)) (or (or ?v_12 ?v_134) P25)) (or (or P14 ?v_12) ?v_18)) (or (or ?v_94 ?v_29) ?v_90)) (or (or ?v_87 ?v_6) ?v_67)) (or (or ?v_108 ?v_135) ?v_17)) (or (or ?v_107 ?v_28) ?v_89)) (or (or ?v_69 ?v_17) ?v_43)) (or (or ?v_67 P13) ?v_87)) (or (or ?v_58 ?v_136) ?v_42)) (or (or ?v_90 P27) ?v_155)) (or (or ?v_5 ?v_114) P22)) (or (or ?v_45 ?v_50) P20)) (or (or P7 ?v_40) ?v_114)) (or (or ?v_77 ?v_50) ?v_17)) (or (or ?v_24 ?v_122) ?v_137)) (or (or ?v_100 ?v_7) ?v_62)) (or (or ?v_149 ?v_4) ?v_96)) (or (or ?v_139 P5) ?v_10)) (or (or ?v_116 ?v_28) ?v_76)) (or (or P5 ?v_29) ?v_66)) (or (or ?v_25 ?v_13) ?v_123)) (or (or ?v_140 ?v_21) ?v_25)) (or (or ?v_42 ?v_117) ?v_141)) (or (or ?v_17 ?v_142) P6)) (or (or ?v_13 P23) ?v_102)) (or (or P17 P8) ?v_119)) (or (or ?v_142 ?v_53) ?v_32)) (or (or ?v_35 ?v_65) ?v_94)) (or (or ?v_143 ?v_39) ?v_8)) (or (or ?v_65 ?v_114) ?v_127)) (or (or ?v_81 ?v_88) ?v_34)) (or (or P3 ?v_95) ?v_51)) (or ?v_144 P1)) (or (or ?v_49 ?v_134) ?v_6)) (or (or ?v_94 ?v_8) ?v_113)) (or (or ?v_13 ?v_25) P9)) (or ?v_152 ?v_2)) (or (or ?v_116 ?v_43) ?v_145)) (or (or P19 ?v_104) ?v_5)) (or (or ?v_62 ?v_62) ?v_145)) (or (or ?v_145 ?v_21) P8)) (or (or ?v_45 ?v_37) ?v_79)) (or (or ?v_133 ?v_78) ?v_73)) (or (or ?v_62 ?v_124) P22)) (or (or ?v_36 ?v_54) ?v_151)) (or ?v_146 P1)) (or (or ?v_70 ?v_142) P11)) (or (or ?v_147 ?v_119) P19)) (or (or P12 ?v_133) ?v_87)) (or (or ?v_91 ?v_27) ?v_141)) (or (or ?v_121 ?v_32) ?v_105)) (or (or ?v_27 ?v_15) ?v_2)) (or (or P26 ?v_148) ?v_109)) (or (or ?v_149 ?v_99) ?v_83)) (or (or P21 ?v_13) ?v_136)) (or (or ?v_70 ?v_82) P12)) (or (or ?v_15 ?v_96) ?v_9)) (or (or ?v_1 ?v_18) ?v_105)) (or (or P5 ?v_102) ?v_150)) (or (or ?v_126 ?v_91) ?v_142)) (or (or ?v_112 ?v_87) ?v_67)) (or (or ?v_140 ?v_108) ?v_68)) (or (or ?v_58 P22) ?v_127)) (or (or ?v_147 ?v_82) ?v_88)) (or (or ?v_15 ?v_148) ?v_131)) (or (or P28 P3) P12)) (or (or ?v_26 ?v_70) ?v_11)) (or (or ?v_65 ?v_49) P13)) (or (or ?v_150 ?v_79) ?v_84)) (or (or ?v_116 ?v_59) ?v_115)) (or (or ?v_93 ?v_115) ?v_101)) (or (or ?v_68 ?v_67) P20)) (or (or ?v_41 ?v_122) P28)) (or (or P0 ?v_95) ?v_151)) (or (or P5 ?v_46) ?v_131)) (or (or P11 ?v_83) ?v_96)) (or (or ?v_88 ?v_39) ?v_119)) (or ?v_152 ?v_15)) (or (or ?v_107 ?v_59) ?v_124)) (or (or ?v_12 P6) ?v_115)) (or (or ?v_85 ?v_62) ?v_75)) (or (or ?v_59 P3) ?v_30)) (or (or ?v_56 ?v_68) ?v_40)) (or (or ?v_79 ?v_128) P23)) (or (or P14 ?v_75) ?v_94)) (or (or ?v_41 ?v_82) ?v_36)) (or (or ?v_137 ?v_59) ?v_139)) (or (or ?v_143 ?v_140) P5)) (or (or ?v_127 ?v_73) ?v_153)) (or (or ?v_43 ?v_66) ?v_153)) (or (or P9 ?v_93) ?v_104)) (or (or ?v_59 ?v_42) ?v_12)) (or (or ?v_57 ?v_141) ?v_5)) (or (or ?v_22 ?v_77) ?v_116)) (or (or ?v_17 ?v_1) ?v_106)) (or (or ?v_147 ?v_60) ?v_31)) (or (or ?v_84 ?v_59) ?v_31)) (or (or ?v_154 ?v_82) ?v_89)) (or (or ?v_51 ?v_56) ?v_147)) (or (or ?v_101 ?v_121) P8)) (or (or P0 ?v_46) ?v_23)) (or (or ?v_46 ?v_13) P14)) (or (or P7 ?v_71) P12)) (or (or ?v_90 ?v_100) ?v_57)) (or (or ?v_90 ?v_43) ?v_128)) (or (or ?v_106 P16) ?v_149)) (or (or ?v_151 ?v_29) ?v_17)) (or (or ?v_17 ?v_81) ?v_41)) (or (or ?v_106 P27) P22)) (or (or ?v_131 ?v_103) ?v_141)) (or (or ?v_59 ?v_103) ?v_136)) (or (or P11 ?v_62) ?v_117)) (or (or ?v_56 P12) ?v_92)) (or (or ?v_154 ?v_77) ?v_9)) (or (or ?v_135 P2) ?v_49)) (or (or ?v_72 ?v_14) ?v_122)) (or (or ?v_126 ?v_131) ?v_90)) (or (or ?v_58 ?v_134) ?v_138)) (or (or ?v_12 ?v_78) ?v_30)) (or (or P15 ?v_128) ?v_84)) (or (or ?v_13 P14) P15)) (or (or ?v_141 ?v_128) ?v_87)) (or (or ?v_96 ?v_23) ?v_137)) (or (or ?v_79 ?v_42) ?v_41)) (or (or ?v_27 ?v_41) ?v_128)) (or (or ?v_55 ?v_136) ?v_141)) (or (or ?v_67 ?v_100) ?v_53)) (or (or ?v_110 ?v_113) ?v_90)) (or (or ?v_102 P15) ?v_65)) (or (or ?v_21 ?v_91) ?v_138)) (or (or ?v_50 ?v_10) P24)) (or (or ?v_47 P6) ?v_105)) (or (or P23 ?v_138) ?v_37)) (or (or ?v_13 ?v_149) ?v_57)) (or (or P11 ?v_149) ?v_81)) (or (or ?v_148 ?v_155) ?v_113)) (or (or ?v_24 ?v_82) ?v_53)) (or (or ?v_63 ?v_132) ?v_15)) (or (or ?v_127 P24) P15)) (or (or ?v_128 ?v_87) ?v_63)) (or (or P2 ?v_96) ?v_130)) (or (or ?v_156 P9) ?v_97)) (or (or P18 ?v_18) ?v_127)) (or (or ?v_149 ?v_95) ?v_123)) (or (or ?v_60 ?v_112) ?v_116)) (or (or ?v_21 ?v_65) P17)) (or (or ?v_49 ?v_92) ?v_8)) (or (or P5 ?v_88) P22)) (or (or ?v_112 ?v_31) ?v_118)) (or (or ?v_98 ?v_123) ?v_67)) (or (or ?v_31 ?v_32) ?v_12)) (or (or ?v_116 ?v_154) ?v_9)) (or (or ?v_115 ?v_150) ?v_64)) (or (or ?v_24 ?v_54) ?v_48)) (or (or ?v_52 ?v_61) ?v_47)) (or (or P19 ?v_84) ?v_43)) (or (or ?v_117 ?v_145) ?v_95)) (or (or ?v_157 ?v_87) ?v_117)) (or (or ?v_148 P25) ?v_153)) (or (or ?v_26 ?v_73) ?v_78)) (or (or ?v_119 P28) ?v_34)) (or (or ?v_97 ?v_95) ?v_107)) (or (or ?v_86 ?v_1) ?v_6)) (or (or ?v_15 ?v_88) ?v_148)) (or (or ?v_127 ?v_98) ?v_124)) (or (or ?v_56 ?v_27) ?v_102)) (or (or ?v_102 ?v_36) ?v_58)) (or (or ?v_96 ?v_151) ?v_86)) (or (or ?v_137 P20) P3)) (or (or ?v_157 ?v_63) ?v_13)) (or (or P26 ?v_135) ?v_103)) (or (or ?v_151 ?v_90) ?v_145)) (or (or P17 ?v_49) P1)) (or (or ?v_149 P25) P9)) (or (or ?v_85 P10) ?v_41)) (or (or ?v_145 ?v_86) ?v_62)) (or (or ?v_61 ?v_107) ?v_49)) (or (or P13 P18) P11)) (or (or ?v_63 ?v_37) ?v_111)) (or (or ?v_99 ?v_55) ?v_60)) (or (or ?v_37 ?v_76) ?v_103)) (or (or ?v_148 ?v_142) P7)) (or (or ?v_72 ?v_17) ?v_112)) (or (or ?v_63 ?v_150) ?v_70)) (or (or ?v_40 P8) ?v_31)) (or (or ?v_112 ?v_143) P13)) (or (or P2 ?v_15) ?v_106)) (or (or ?v_46 ?v_121) ?v_97)) (or (or ?v_81 P18) ?v_70)) (or (or ?v_33 ?v_15) ?v_116)) (or (or P26 ?v_122) ?v_70)) (or (or P17 ?v_34) ?v_64)) (or (or ?v_103 ?v_88) ?v_73)) (or (or ?v_120 ?v_127) ?v_18)) (or (or P19 ?v_33) ?v_133)) (or (or ?v_83 ?v_90) P1)) (or (or ?v_108 ?v_73) ?v_115)) (or (or ?v_115 P25) ?v_35)) (or (or ?v_103 ?v_59) ?v_121)) (or (or ?v_54 ?v_130) ?v_111)) (or (or ?v_29 ?v_151) ?v_82)) (or (or P3 ?v_140) ?v_35)) (or (or ?v_71 ?v_150) ?v_2)) (or (or ?v_119 ?v_84) ?v_139)) (or (or P12 ?v_29) ?v_92)) (or (or ?v_107 ?v_113) ?v_142)) (or (or P17 ?v_60) ?v_131)) (or (or ?v_23 ?v_37) ?v_17)) (or (or ?v_60 ?v_59) ?v_119)) (or (or ?v_36 P29) ?v_51)) (or (or ?v_53 ?v_158) ?v_47)) (or (or ?v_82 ?v_42) ?v_121)) (or (or ?v_35 ?v_7) ?v_34)) (or (or ?v_72 ?v_92) P28)) (or (or ?v_85 ?v_47) ?v_90)) (or (or ?v_126 ?v_76) ?v_151)) (or (or P16 ?v_10) ?v_88)) (or (or ?v_50 ?v_52) ?v_28)) (or (or ?v_93 ?v_87) ?v_51)) (or (or ?v_28 P14) ?v_74)) (or (or ?v_72 ?v_82) ?v_134)) (or (or ?v_26 ?v_154) ?v_74)) (or (or ?v_42 ?v_59) P20)) (or (or ?v_17 ?v_22) ?v_11)) (or (or ?v_6 ?v_57) P14)) (or (or ?v_109 ?v_37) ?v_86)) (or (or ?v_5 ?v_36) ?v_75)) (or (or ?v_56 ?v_95) ?v_38)) (or (or ?v_21 P2) ?v_34)) (or (or P7 P9) ?v_5)) (or (or ?v_65 ?v_83) P22)) (or (or P23 ?v_15) ?v_115)) (or (or ?v_56 (not P29)) ?v_130)) (or (or ?v_81 ?v_39) ?v_98)) (or (or P28 ?v_59) ?v_65)) (or (or ?v_93 ?v_89) ?v_35)) (or (or P1 P4) ?v_96)) (or (or P23 ?v_145) ?v_111)) (or (or ?v_32 P14) ?v_103)) (or (or ?v_7 ?v_28) ?v_55)) (or (or ?v_48 ?v_13) ?v_99)) (or (or ?v_105 P22) ?v_25)) (or (or P23 ?v_29) ?v_62)) (or (or ?v_65 ?v_120) ?v_140)) (or (or P22 ?v_112) ?v_52)) (or (or ?v_13 ?v_74) P4)) (or (or ?v_29 ?v_29) ?v_118)) (or (or ?v_99 P23) ?v_151)) (or (or ?v_9 P29) ?v_107)) (or (or ?v_122 ?v_71) ?v_96)) (or (or ?v_9 ?v_109) ?v_116)) (or (or ?v_110 ?v_38) ?v_135))))))))))))))))))))))))))))))
(check-sat)
(exit)
